objective value:                                12263
t_x_0                                               1 	(obj:21)
t_x_6                                               1 	(obj:36)
t_x_9                                               1 	(obj:44)
t_x_14                                              1 	(obj:15)
t_x_19                                              1 	(obj:32)
t_x_26                                              1 	(obj:42)
t_x_31                                              1 	(obj:26)
t_x_32                                              1 	(obj:10)
t_x_37                                              1 	(obj:31)
t_x_38                                              1 	(obj:15)
t_x_39                                              1 	(obj:8)
t_x_43                                              1 	(obj:39)
t_x_47                                              1 	(obj:23)
t_x_51                                              1 	(obj:7)
t_x_53                                              1 	(obj:17)
t_x_61                                              1 	(obj:9)
t_x_62                                              1 	(obj:47)
t_x_64                                              1 	(obj:11)
t_x_73                                              1 	(obj:2)
t_x_76                                              1 	(obj:27)
t_x_80                                              1 	(obj:24)
t_x_84                                              1 	(obj:17)
t_x_92                                              1 	(obj:33)
t_x_95                                              1 	(obj:83)
t_x_96                                              1 	(obj:26)
t_x_99                                              1 	(obj:8)
t_x_119                                             1 	(obj:14)
t_x_128                                             1 	(obj:22)
t_x_129                                             1 	(obj:34)
t_x_132                                             1 	(obj:6)
t_x_134                                             1 	(obj:34)
t_x_137                                             1 	(obj:19)
t_x_140                                             1 	(obj:6)
t_x_143                                             1 	(obj:10)
t_x_144                                             1 	(obj:62)
t_x_146                                             1 	(obj:12)
t_x_147                                             1 	(obj:43)
t_x_153                                             1 	(obj:17)
t_x_162                                             1 	(obj:6)
t_x_163                                             1 	(obj:1)
t_x_166                                             1 	(obj:11)
t_x_170                                             1 	(obj:41)
t_x_172                                             1 	(obj:17)
t_x_175                                             1 	(obj:4)
t_x_176                                             1 	(obj:21)
t_x_177                                             1 	(obj:15)
t_x_178                                             1 	(obj:44)
t_x_183                                             1 	(obj:0)
t_x_186                                             1 	(obj:17)
t_x_190                                             1 	(obj:12)
t_x_193                                             1 	(obj:24)
t_x_194                                             1 	(obj:0)
t_x_197                                             1 	(obj:18)
t_x_200                                             1 	(obj:42)
t_x_201                                             1 	(obj:37)
t_x_202                                             1 	(obj:8)
t_x_203                                             1 	(obj:4)
t_x_207                                             1 	(obj:23)
t_x_215                                             1 	(obj:16)
t_x_227                                             1 	(obj:28)
t_x_229                                             1 	(obj:8)
t_x_230                                             1 	(obj:0)
t_x_231                                             1 	(obj:11)
t_x_232                                             1 	(obj:40)
t_x_235                                             1 	(obj:6)
t_x_236                                             1 	(obj:68)
t_x_239                                             1 	(obj:15)
t_x_242                                             1 	(obj:32)
t_x_244                                             1 	(obj:0)
t_x_246                                             1 	(obj:0)
t_x_247                                             1 	(obj:7)
t_x_248                                             1 	(obj:7)
t_x_249                                             1 	(obj:5)
t_x_252                                             1 	(obj:34)
t_x_253                                             1 	(obj:8)
t_x_255                                             1 	(obj:0)
t_x_259                                             1 	(obj:15)
t_x_262                                             1 	(obj:27)
t_x_266                                             1 	(obj:6)
t_x_268                                             1 	(obj:14)
t_x_270                                             1 	(obj:9)
t_x_277                                             1 	(obj:28)
t_x_280                                             1 	(obj:51)
t_x_282                                             1 	(obj:12)
t_x_283                                             1 	(obj:12)
t_x_297                                             1 	(obj:7)
t_x_300                                             1 	(obj:6)
t_x_304                                             1 	(obj:12)
t_x_305                                             1 	(obj:45)
t_x_309                                             1 	(obj:3)
t_x_312                                             1 	(obj:40)
t_x_314                                             1 	(obj:11)
t_x_321                                             1 	(obj:18)
t_x_322                                             1 	(obj:0)
t_x_327                                             1 	(obj:6)
t_x_329                                             1 	(obj:44)
t_x_335                                             1 	(obj:0)
t_x_347                                             1 	(obj:5)
t_x_351                                             1 	(obj:1)
t_x_354                                             1 	(obj:30)
t_x_355                                             1 	(obj:12)
t_x_356                                             1 	(obj:16)
t_x_358                                             1 	(obj:4)
t_x_359                                             1 	(obj:4)
t_x_362                                             1 	(obj:27)
t_x_363                                             1 	(obj:21)
t_x_364                                             1 	(obj:8)
t_x_367                                             1 	(obj:17)
t_x_369                                             1 	(obj:19)
t_x_374                                             1 	(obj:75)
t_x_376                                             1 	(obj:5)
t_x_379                                             1 	(obj:19)
t_x_381                                             1 	(obj:41)
t_x_385                                             1 	(obj:24)
t_x_386                                             1 	(obj:30)
t_x_389                                             1 	(obj:5)
t_x_392                                             1 	(obj:30)
t_x_394                                             1 	(obj:5)
t_x_398                                             1 	(obj:36)
t_x_400                                             1 	(obj:26)
t_x_401                                             1 	(obj:38)
t_x_402                                             1 	(obj:39)
t_x_411                                             1 	(obj:8)
t_x_412                                             1 	(obj:67)
t_x_414                                             1 	(obj:8)
t_x_421                                             1 	(obj:30)
t_x_422                                             1 	(obj:36)
t_x_423                                             1 	(obj:66)
t_x_425                                             1 	(obj:68)
t_x_427                                             1 	(obj:29)
t_x_429                                             1 	(obj:17)
t_x_430                                             1 	(obj:15)
t_x_433                                             1 	(obj:6)
t_x_441                                             1 	(obj:49)
t_x_446                                             1 	(obj:4)
t_x_447                                             1 	(obj:20)
t_x_448                                             1 	(obj:9)
t_x_456                                             1 	(obj:2)
t_x_457                                             1 	(obj:71)
t_x_459                                             1 	(obj:23)
t_x_461                                             1 	(obj:16)
t_x_462                                             1 	(obj:18)
t_x_465                                             1 	(obj:20)
t_x_470                                             1 	(obj:58)
t_x_475                                             1 	(obj:20)
t_x_478                                             1 	(obj:15)
t_x_482                                             1 	(obj:14)
t_x_483                                             1 	(obj:29)
t_x_485                                             1 	(obj:5)
t_x_487                                             1 	(obj:4)
t_x_488                                             1 	(obj:12)
t_x_494                                             1 	(obj:2)
t_x_495                                             1 	(obj:1)
t_x_501                                             1 	(obj:50)
t_x_502                                             1 	(obj:3)
t_x_504                                             1 	(obj:27)
t_x_505                                             1 	(obj:19)
t_x_507                                             1 	(obj:22)
t_x_510                                             1 	(obj:13)
t_x_518                                             1 	(obj:33)
t_x_524                                             1 	(obj:17)
t_x_526                                             1 	(obj:20)
t_x_528                                             1 	(obj:3)
t_x_532                                             1 	(obj:3)
t_x_535                                             1 	(obj:12)
t_x_539                                             1 	(obj:0)
t_x_543                                             1 	(obj:52)
t_x_545                                             1 	(obj:17)
t_x_547                                             1 	(obj:4)
t_x_549                                             1 	(obj:52)
t_x_550                                             1 	(obj:8)
t_x_551                                             1 	(obj:4)
t_x_552                                             1 	(obj:28)
t_x_554                                             1 	(obj:22)
t_x_555                                             1 	(obj:9)
t_x_561                                             1 	(obj:27)
t_x_562                                             1 	(obj:18)
t_x_567                                             1 	(obj:10)
t_x_568                                             1 	(obj:19)
t_x_573                                             1 	(obj:4)
t_x_574                                             1 	(obj:32)
t_x_576                                             1 	(obj:17)
t_x_577                                             1 	(obj:22)
t_x_580                                             1 	(obj:24)
t_x_583                                             1 	(obj:28)
t_x_585                                             1 	(obj:76)
t_x_586                                             1 	(obj:42)
t_x_587                                             1 	(obj:0)
t_x_589                                             1 	(obj:15)
t_x_590                                             1 	(obj:20)
t_x_593                                             1 	(obj:3)
t_x_599                                             1 	(obj:3)
t_x_602                                             1 	(obj:16)
t_x_604                                             1 	(obj:6)
t_x_605                                             1 	(obj:8)
t_x_607                                             1 	(obj:10)
t_x_608                                             1 	(obj:7)
t_x_609                                             1 	(obj:4)
t_x_611                                             1 	(obj:15)
t_x_612                                             1 	(obj:4)
t_x_615                                             1 	(obj:53)
t_x_620                                             1 	(obj:47)
t_x_623                                             1 	(obj:5)
t_x_624                                             1 	(obj:22)
t_x_625                                             1 	(obj:7)
t_x_627                                             1 	(obj:4)
t_x_628                                             1 	(obj:52)
t_x_629                                             1 	(obj:4)
t_x_630                                             1 	(obj:36)
t_x_631                                             1 	(obj:12)
t_x_634                                             1 	(obj:13)
t_x_635                                             1 	(obj:13)
t_x_637                                             1 	(obj:6)
t_x_642                                             1 	(obj:38)
t_x_649                                             1 	(obj:29)
t_x_650                                             1 	(obj:0)
t_x_653                                             1 	(obj:16)
t_x_654                                             1 	(obj:25)
t_x_657                                             1 	(obj:50)
t_x_660                                             1 	(obj:35)
t_x_664                                             1 	(obj:24)
t_x_667                                             1 	(obj:0)
t_x_669                                             1 	(obj:18)
t_x_675                                             1 	(obj:3)
t_x_676                                             1 	(obj:7)
t_x_677                                             1 	(obj:1)
t_x_682                                             1 	(obj:7)
t_x_684                                             1 	(obj:82)
t_x_687                                             1 	(obj:39)
t_x_688                                             1 	(obj:0)
t_x_689                                             1 	(obj:22)
t_x_692                                             1 	(obj:27)
t_x_693                                             1 	(obj:23)
t_x_706                                             1 	(obj:4)
t_x_712                                             1 	(obj:21)
t_x_714                                             1 	(obj:21)
t_x_718                                             1 	(obj:35)
t_x_721                                             1 	(obj:39)
t_x_723                                             1 	(obj:14)
t_x_733                                             1 	(obj:36)
t_x_734                                             1 	(obj:23)
t_x_739                                             1 	(obj:11)
t_x_742                                             1 	(obj:2)
t_x_745                                             1 	(obj:17)
t_x_755                                             1 	(obj:54)
t_x_765                                             1 	(obj:39)
t_x_768                                             1 	(obj:34)
t_x_769                                             1 	(obj:38)
t_x_773                                             1 	(obj:8)
t_x_774                                             1 	(obj:16)
t_x_781                                             1 	(obj:0)
t_x_782                                             1 	(obj:24)
t_x_785                                             1 	(obj:22)
t_x_790                                             1 	(obj:9)
t_x_797                                             1 	(obj:3)
t_x_801                                             1 	(obj:30)
t_x_805                                             1 	(obj:15)
t_x_813                                             1 	(obj:25)
t_x_815                                             1 	(obj:19)
t_x_817                                             1 	(obj:29)
t_x_824                                             1 	(obj:9)
t_x_826                                             1 	(obj:10)
t_x_827                                             1 	(obj:28)
t_x_828                                             1 	(obj:5)
t_x_830                                             1 	(obj:11)
t_x_832                                             1 	(obj:44)
t_x_836                                             1 	(obj:22)
t_x_838                                             1 	(obj:27)
t_x_840                                             1 	(obj:31)
t_x_841                                             1 	(obj:18)
t_x_842                                             1 	(obj:22)
t_x_856                                             1 	(obj:15)
t_x_858                                             1 	(obj:30)
t_x_859                                             1 	(obj:37)
t_x_861                                             1 	(obj:39)
t_x_865                                             1 	(obj:17)
t_x_868                                             1 	(obj:41)
t_x_870                                             1 	(obj:54)
t_x_871                                             1 	(obj:2)
t_x_879                                             1 	(obj:23)
t_x_880                                             1 	(obj:18)
t_x_889                                             1 	(obj:1)
t_x_890                                             1 	(obj:12)
t_x_892                                             1 	(obj:30)
t_x_903                                             1 	(obj:13)
t_x_904                                             1 	(obj:28)
t_x_905                                             1 	(obj:16)
t_x_908                                             1 	(obj:7)
t_x_915                                             1 	(obj:53)
t_x_919                                             1 	(obj:23)
t_x_920                                             1 	(obj:15)
t_x_921                                             1 	(obj:40)
t_x_922                                             1 	(obj:9)
t_x_924                                             1 	(obj:13)
t_x_927                                             1 	(obj:13)
t_x_929                                             1 	(obj:11)
t_x_933                                             1 	(obj:27)
t_x_934                                             1 	(obj:39)
t_x_936                                             1 	(obj:31)
t_x_938                                             1 	(obj:5)
t_x_939                                             1 	(obj:6)
t_x_944                                             1 	(obj:20)
t_x_946                                             1 	(obj:10)
t_x_949                                             1 	(obj:48)
t_x_951                                             1 	(obj:3)
t_x_952                                             1 	(obj:42)
t_x_956                                             1 	(obj:26)
t_x_964                                             1 	(obj:8)
t_x_965                                             1 	(obj:62)
t_x_969                                             1 	(obj:37)
t_x_974                                             1 	(obj:19)
t_x_980                                             1 	(obj:15)
t_x_982                                             1 	(obj:12)
t_x_989                                             1 	(obj:13)
t_x_991                                             1 	(obj:14)
t_x_998                                             1 	(obj:20)
t_x_1001                                            1 	(obj:19)
t_x_1002                                            1 	(obj:35)
t_x_1009                                            1 	(obj:45)
t_x_1012                                            1 	(obj:25)
t_x_1013                                            1 	(obj:18)
t_x_1015                                            1 	(obj:11)
t_x_1019                                            1 	(obj:2)
t_x_1020                                            1 	(obj:3)
t_x_1026                                            1 	(obj:2)
t_x_1027                                            1 	(obj:28)
t_x_1029                                            1 	(obj:40)
t_x_1030                                            1 	(obj:6)
t_x_1031                                            1 	(obj:36)
t_x_1033                                            1 	(obj:6)
t_x_1036                                            1 	(obj:25)
t_x_1037                                            1 	(obj:26)
t_x_1046                                            1 	(obj:38)
t_x_1048                                            1 	(obj:0)
t_x_1056                                            1 	(obj:17)
t_x_1058                                            1 	(obj:27)
t_x_1059                                            1 	(obj:5)
t_x_1066                                            1 	(obj:0)
t_x_1068                                            1 	(obj:16)
t_x_1069                                            1 	(obj:11)
t_x_1071                                            1 	(obj:39)
t_x_1073                                            1 	(obj:12)
t_x_1075                                            1 	(obj:59)
t_x_1081                                            1 	(obj:23)
t_x_1082                                            1 	(obj:25)
t_x_1083                                            1 	(obj:3)
t_x_1100                                            1 	(obj:16)
t_x_1102                                            1 	(obj:2)
t_x_1104                                            1 	(obj:41)
t_x_1105                                            1 	(obj:4)
t_x_1107                                            1 	(obj:1)
t_x_1118                                            1 	(obj:10)
t_x_1119                                            1 	(obj:17)
t_x_1121                                            1 	(obj:21)
t_x_1123                                            1 	(obj:10)
t_x_1128                                            1 	(obj:47)
t_x_1130                                            1 	(obj:6)
t_x_1132                                            1 	(obj:38)
t_x_1137                                            1 	(obj:2)
t_x_1143                                            1 	(obj:5)
t_x_1146                                            1 	(obj:32)
t_x_1148                                            1 	(obj:28)
t_x_1151                                            1 	(obj:23)
t_x_1154                                            1 	(obj:26)
t_x_1155                                            1 	(obj:21)
t_x_1156                                            1 	(obj:8)
t_x_1158                                            1 	(obj:36)
t_x_1159                                            1 	(obj:9)
t_x_1165                                            1 	(obj:17)
t_x_1168                                            1 	(obj:8)
t_x_1181                                            1 	(obj:23)
t_x_1183                                            1 	(obj:0)
t_x_1186                                            1 	(obj:15)
t_x_1187                                            1 	(obj:15)
t_x_1189                                            1 	(obj:36)
t_x_1191                                            1 	(obj:24)
t_x_1192                                            1 	(obj:27)
t_x_1199                                            1 	(obj:53)
t_x_1204                                            1 	(obj:4)
t_x_1206                                            1 	(obj:11)
t_x_1214                                            1 	(obj:17)
t_x_1217                                            1 	(obj:15)
t_x_1221                                            1 	(obj:35)
t_x_1224                                            1 	(obj:3)
t_x_1227                                            1 	(obj:37)
t_x_1228                                            1 	(obj:10)
t_x_1238                                            1 	(obj:41)
t_x_1243                                            1 	(obj:6)
t_x_1245                                            1 	(obj:28)
t_x_1250                                            1 	(obj:17)
t_x_1251                                            1 	(obj:24)
t_x_1259                                            1 	(obj:31)
t_x_1262                                            1 	(obj:20)
t_x_1264                                            1 	(obj:16)
t_x_1279                                            1 	(obj:18)
t_x_1281                                            1 	(obj:9)
t_x_1283                                            1 	(obj:32)
t_x_1284                                            1 	(obj:59)
t_x_1288                                            1 	(obj:5)
t_x_1289                                            1 	(obj:5)
t_x_1292                                            1 	(obj:53)
t_x_1293                                            1 	(obj:11)
t_x_1301                                            1 	(obj:5)
t_x_1302                                            1 	(obj:35)
t_x_1309                                            1 	(obj:15)
t_x_1311                                            1 	(obj:5)
t_x_1317                                            1 	(obj:1)
t_x_1320                                            1 	(obj:24)
t_x_1324                                            1 	(obj:1)
t_x_1327                                            1 	(obj:4)
t_x_1328                                            1 	(obj:11)
t_x_1331                                            1 	(obj:51)
t_x_1336                                            1 	(obj:0)
t_x_1355                                            1 	(obj:17)
t_x_1357                                            1 	(obj:43)
t_x_1359                                            1 	(obj:9)
t_x_1360                                            1 	(obj:4)
t_x_1361                                            1 	(obj:17)
t_x_1365                                            1 	(obj:21)
t_x_1366                                            1 	(obj:20)
t_x_1368                                            1 	(obj:27)
t_x_1371                                            1 	(obj:4)
t_x_1373                                            1 	(obj:22)
t_x_1376                                            1 	(obj:27)
t_x_1377                                            1 	(obj:18)
t_x_1378                                            1 	(obj:36)
t_x_1382                                            1 	(obj:32)
t_x_1383                                            1 	(obj:17)
t_x_1386                                            1 	(obj:19)
t_x_1392                                            1 	(obj:0)
t_x_1394                                            1 	(obj:48)
t_x_1397                                            1 	(obj:15)
t_x_1408                                            1 	(obj:4)
t_x_1409                                            1 	(obj:4)
t_x_1410                                            1 	(obj:21)
t_x_1412                                            1 	(obj:28)
t_x_1413                                            1 	(obj:1)
t_x_1414                                            1 	(obj:11)
t_x_1422                                            1 	(obj:19)
t_x_1425                                            1 	(obj:13)
t_x_1430                                            1 	(obj:3)
t_x_1431                                            1 	(obj:22)
t_x_1434                                            1 	(obj:9)
t_x_1436                                            1 	(obj:42)
t_x_1437                                            1 	(obj:12)
t_x_1441                                            1 	(obj:38)
t_x_1442                                            1 	(obj:33)
t_x_1444                                            1 	(obj:13)
t_x_1446                                            1 	(obj:35)
t_x_1447                                            1 	(obj:31)
t_x_1450                                            1 	(obj:21)
t_x_1451                                            1 	(obj:51)
t_x_1452                                            1 	(obj:11)
t_x_1459                                            1 	(obj:45)
t_x_1467                                            1 	(obj:32)
t_x_1470                                            1 	(obj:7)
t_x_1472                                            1 	(obj:63)
t_x_1473                                            1 	(obj:22)
t_x_1478                                            1 	(obj:10)
t_x_1481                                            1 	(obj:0)
t_x_1482                                            1 	(obj:6)
t_x_1487                                            1 	(obj:42)
t_x_1489                                            1 	(obj:39)
t_x_1495                                            1 	(obj:23)
t_x_1496                                            1 	(obj:29)
t_x_1497                                            1 	(obj:28)
t_x_1498                                            1 	(obj:22)
t_x_1502                                            1 	(obj:23)
t_x_1503                                            1 	(obj:37)
t_x_1505                                            1 	(obj:24)
t_x_1509                                            1 	(obj:0)
t_x_1518                                            1 	(obj:46)
t_x_1524                                            1 	(obj:30)
t_x_1534                                            1 	(obj:2)
t_x_1535                                            1 	(obj:59)
t_x_1536                                            1 	(obj:1)
t_x_1537                                            1 	(obj:33)
t_x_1542                                            1 	(obj:46)
t_x_1543                                            1 	(obj:0)
t_x_1547                                            1 	(obj:29)
t_x_1549                                            1 	(obj:16)
t_x_1550                                            1 	(obj:4)
t_x_1551                                            1 	(obj:33)
t_x_1553                                            1 	(obj:9)
t_x_1555                                            1 	(obj:2)
t_x_1556                                            1 	(obj:73)
t_x_1557                                            1 	(obj:2)
t_x_1559                                            1 	(obj:17)
t_x_1564                                            1 	(obj:13)
t_x_1567                                            1 	(obj:3)
t_x_1571                                            1 	(obj:5)
t_x_1573                                            1 	(obj:10)
t_x_1576                                            1 	(obj:22)
t_x_1577                                            1 	(obj:33)
t_x_1580                                            1 	(obj:33)
t_x_1581                                            1 	(obj:8)
t_x_1587                                            1 	(obj:18)
t_x_1594                                            1 	(obj:15)
t_x_1595                                            1 	(obj:6)
t_x_1598                                            1 	(obj:9)
t_x_1607                                            1 	(obj:40)
t_x_1611                                            1 	(obj:3)
t_x_1613                                            1 	(obj:24)
t_x_1615                                            1 	(obj:6)
t_x_1622                                            1 	(obj:12)
t_x_1625                                            1 	(obj:28)
t_x_1629                                            1 	(obj:25)
t_x_1631                                            1 	(obj:24)
t_x_1634                                            1 	(obj:1)
t_x_1644                                            1 	(obj:9)
t_x_1647                                            1 	(obj:20)
t_x_1652                                            1 	(obj:12)
t_x_1657                                            1 	(obj:7)
t_x_1661                                            1 	(obj:7)
t_x_1666                                            1 	(obj:3)
t_x_1671                                            1 	(obj:14)
t_x_1677                                            1 	(obj:10)
t_x_1680                                            1 	(obj:5)
t_x_1683                                            1 	(obj:30)
t_x_1684                                            1 	(obj:7)
t_x_1689                                            1 	(obj:17)
t_x_1693                                            1 	(obj:10)
t_x_1695                                            1 	(obj:13)
t_x_1700                                            1 	(obj:20)
t_x_1703                                            1 	(obj:6)
t_x_1707                                            1 	(obj:1)
t_x_1709                                            1 	(obj:2)
t_x_1712                                            1 	(obj:49)
t_x_1714                                            1 	(obj:13)
t_x_1715                                            1 	(obj:26)
t_x_1721                                            1 	(obj:8)
t_x_1723                                            1 	(obj:30)
t_x_1726                                            1 	(obj:21)
t_x_1727                                            1 	(obj:48)
t_x_1729                                            1 	(obj:37)
t_x_1736                                            1 	(obj:31)
t_x_1744                                            1 	(obj:2)
t_x_1745                                            1 	(obj:30)
t_x_1749                                            1 	(obj:24)
t_x_1751                                            1 	(obj:36)
t_x_1754                                            1 	(obj:0)
t_x_1757                                            1 	(obj:30)
t_x_1759                                            1 	(obj:15)
t_x_1761                                            1 	(obj:13)
t_x_1769                                            1 	(obj:38)
t_x_1770                                            1 	(obj:7)
t_x_1771                                            1 	(obj:27)
t_x_1772                                            1 	(obj:21)
t_x_1777                                            1 	(obj:2)
t_x_1778                                            1 	(obj:10)
t_x_1784                                            1 	(obj:57)
t_x_1786                                            1 	(obj:20)
t_x_1787                                            1 	(obj:58)
t_x_1789                                            1 	(obj:7)
t_x_1790                                            1 	(obj:22)
t_x_1799                                            1 	(obj:32)
t_x_1800                                            1 	(obj:5)
t_x_1802                                            1 	(obj:0)
t_x_1803                                            1 	(obj:21)
t_x_1804                                            1 	(obj:15)
t_x_1805                                            1 	(obj:1)
t_x_1806                                            1 	(obj:11)
t_x_1810                                            1 	(obj:8)
t_x_1815                                            1 	(obj:4)
t_x_1816                                            1 	(obj:2)
t_x_1824                                            1 	(obj:13)
t_x_1825                                            1 	(obj:11)
t_x_1828                                            1 	(obj:18)
t_x_1829                                            1 	(obj:19)
t_x_1839                                            1 	(obj:39)
t_x_1844                                            1 	(obj:17)
t_x_1846                                            1 	(obj:21)
t_x_1855                                            1 	(obj:34)
t_x_1856                                            1 	(obj:27)
t_x_1857                                            1 	(obj:1)
t_x_1858                                            1 	(obj:14)
t_x_1859                                            1 	(obj:11)
t_x_1860                                            1 	(obj:50)
t_x_1864                                            1 	(obj:14)
t_x_1871                                            1 	(obj:6)
t_x_1873                                            1 	(obj:0)
t_x_1875                                            1 	(obj:13)
t_x_1876                                            1 	(obj:7)
t_x_1877                                            1 	(obj:2)
t_x_1879                                            1 	(obj:6)
t_x_1883                                            1 	(obj:0)
t_x_1884                                            1 	(obj:3)
t_x_1894                                            1 	(obj:17)
t_x_1897                                            1 	(obj:7)
t_x_1903                                            1 	(obj:27)
t_x_1906                                            1 	(obj:41)
t_x_1912                                            1 	(obj:2)
t_x_1918                                            1 	(obj:8)
t_x_1922                                            1 	(obj:8)
t_x_1926                                            1 	(obj:7)
t_x_1934                                            1 	(obj:10)
t_x_1935                                            1 	(obj:18)
t_x_1936                                            1 	(obj:31)
t_x_1937                                            1 	(obj:1)
t_x_1940                                            1 	(obj:34)
t_x_1943                                            1 	(obj:10)
t_x_1944                                            1 	(obj:10)
t_x_1960                                            1 	(obj:20)
t_x_1963                                            1 	(obj:25)
t_x_1972                                            1 	(obj:11)
t_x_1973                                            1 	(obj:28)
t_x_1976                                            1 	(obj:55)
t_x_1984                                            1 	(obj:25)
t_x_1988                                            1 	(obj:5)
t_x_1989                                            1 	(obj:3)
t_x_1994                                            1 	(obj:20)
t_x_1995                                            1 	(obj:3)
t_x_1997                                            1 	(obj:38)
